2-dimensional/CL_07_25_01.vbp
2
150 150 
25
37 29 30
77 84 72
24 29 4
30 26 88
32 30 54
74 70 64
67 68 90
30 21 26
87 96 94
69 77 28
74 78 72
66 69 49
36 31 54
82 81 19
89 87 28
47 51 61
55 50 84
77 72 23
24 18 67
73 65 53
29 21 54
44 50 16
55 45 9
27 18 54
30 28 77
