datasets/2-dimensional-benchmark/CL_07_25_01.txt
150 150 
0 30 37 29 
1 72 77 84 
2 4 24 29 
3 88 30 26 
4 54 32 30 
5 64 74 70 
6 90 67 68 
7 26 30 21 
8 94 87 96 
9 28 69 77 
10 72 74 78 
11 49 66 69 
12 54 36 31 
13 19 82 81 
14 28 89 87 
15 61 47 51 
16 84 55 50 
17 23 77 72 
18 67 24 18 
19 53 73 65 
20 54 29 21 
21 16 44 50 
22 9 55 45 
23 54 27 18 
24 77 30 28 
